400
1000
700
699
699
697
696
695
694
694
693
693
693
692
691
690
689
689
685
685
685
685
683
676
676
675
675
674
671
671
670
668
668
667
667
666
665
663
661
658
657
657
656
654
654
653
653
647
644
643
643
642
642
642
641
640
639
635
635
635
635
631
630
630
627
627
626
624
623
621
619
616
616
616
614
613
611
610
609
608
607
607
604
602
599
597
597
593
593
591
587
586
584
575
575
573
571
569
568
566
566
566
561
559
559
558
557
556
554
553
549
546
544
542
540
539
539
537
537
535
533
533
533
532
532
529
528
528
525
523
520
520
518
518
516
516
514
512
512
511
511
511
509
508
508
504
503
503
503
501
500
500
499
496
496
495
494
492
492
490
489
489
488
487
484
484
475
475
473
472
472
471
470
470
470
469
467
467
466
466
465
465
463
462
462
460
458
458
455
455
455
453
453
452
451
451
450
450
446
444
442
442
441
439
437
437
436
435
435
433
431
428
426
426
425
424
422
422
421
421
421
420
419
419
418
417
416
413
413
412
412
412
412
411
410
408
407
405
404
398
397
397
396
396
396
395
394
393
393
389
388
387
387
385
383
383
382
380
379
379
378
377
374
370
370
370
369
369
368
367
366
365
365
364
360
359
357
354
353
349
348
347
343
342
341
340
337
335
334
334
334
331
331
330
330
328
328
327
327
327
324
323
323
320
319
319
318
318
317
316
315
308
308
307
306
306
306
304
304
303
302
302
302
300
299
299
297
295
295
292
291
289
288
283
282
282
281
281
281
281
280
278
277
276
275
274
274
274
272
270
269
266
265
264
264
262
260
260
259
257
255
252
250
249
248
247
245
243
242
242
240
239
235
234
233
233
232
231
228
227
224
222
222
220
220
220
219
219
218
215
215
214
211
210
209
206
206
203
202
202
201
200
